c n orig vars 96
p cnf 322 940
97 -1 0
97 -2 0
-97 1 2 0
98 -3 0
98 -4 0
-98 3 4 0
99 -5 0
99 -6 0
-99 5 6 0
100 -7 0
100 -8 0
-100 7 8 0
101 -9 0
101 -10 0
-101 9 10 0
102 -11 0
102 -12 0
-102 11 12 0
103 -13 0
103 -14 0
-103 13 14 0
104 -15 0
104 -16 0
-104 15 16 0
105 -17 0
105 -18 0
-105 17 18 0
106 -19 0
106 -20 0
-106 19 20 0
107 -21 0
107 -22 0
-107 21 22 0
108 -23 0
108 -24 0
-108 23 24 0
109 -25 0
109 -26 0
-109 25 26 0
110 -27 0
110 -28 0
-110 27 28 0
111 -29 0
111 -30 0
-111 29 30 0
112 -31 0
112 -32 0
-112 31 32 0
113 -33 0
113 -34 0
-113 33 34 0
114 -35 0
114 -36 0
-114 35 36 0
115 -37 0
115 -38 0
-115 37 38 0
116 -39 0
116 -40 0
-116 39 40 0
-117 97 0
-117 98 0
-117 99 0
-117 100 0
-117 101 0
-117 102 0
-117 103 0
-117 104 0
-117 105 0
-117 106 0
-117 107 0
-117 108 0
-117 109 0
-117 110 0
-117 111 0
-117 112 0
-117 113 0
-117 114 0
-117 115 0
-117 116 0
117 -97 -98 -99 -100 -101 -102 -103 -104 -105 -106 -107 -108 -109 -110 -111 -112 -113 -114 -115 -116 0
-117 0
118 -41 0
118 -49 0
118 -57 0
118 -65 0
118 -73 0
118 -81 0
118 -89 0
-118 41 49 57 65 73 81 89 0
119 -42 0
119 -50 0
119 -58 0
119 -66 0
119 -74 0
119 -82 0
119 -90 0
-119 42 50 58 66 74 82 90 0
120 -43 0
120 -51 0
120 -59 0
120 -67 0
120 -75 0
120 -83 0
120 -91 0
-120 43 51 59 67 75 83 91 0
121 -44 0
121 -52 0
121 -60 0
121 -68 0
121 -76 0
121 -84 0
121 -92 0
-121 44 52 60 68 76 84 92 0
122 -45 0
122 -53 0
122 -61 0
122 -69 0
122 -77 0
122 -85 0
122 -93 0
-122 45 53 61 69 77 85 93 0
123 -46 0
123 -54 0
123 -62 0
123 -70 0
123 -78 0
123 -86 0
123 -94 0
-123 46 54 62 70 78 86 94 0
124 -47 0
124 -55 0
124 -63 0
124 -71 0
124 -79 0
124 -87 0
124 -95 0
-124 47 55 63 71 79 87 95 0
125 -48 0
125 -56 0
125 -64 0
125 -72 0
125 -80 0
125 -88 0
125 -96 0
-125 48 56 64 72 80 88 96 0
126 41 0
126 42 0
-126 -41 -42 0
127 41 0
127 43 0
-127 -41 -43 0
128 41 0
128 44 0
-128 -41 -44 0
129 41 0
129 45 0
-129 -41 -45 0
130 41 0
130 46 0
-130 -41 -46 0
131 41 0
131 47 0
-131 -41 -47 0
132 41 0
132 48 0
-132 -41 -48 0
133 42 0
133 43 0
-133 -42 -43 0
134 42 0
134 44 0
-134 -42 -44 0
135 42 0
135 45 0
-135 -42 -45 0
136 42 0
136 46 0
-136 -42 -46 0
137 42 0
137 47 0
-137 -42 -47 0
138 42 0
138 48 0
-138 -42 -48 0
139 43 0
139 44 0
-139 -43 -44 0
140 43 0
140 45 0
-140 -43 -45 0
141 43 0
141 46 0
-141 -43 -46 0
142 43 0
142 47 0
-142 -43 -47 0
143 43 0
143 48 0
-143 -43 -48 0
144 44 0
144 45 0
-144 -44 -45 0
145 44 0
145 46 0
-145 -44 -46 0
146 44 0
146 47 0
-146 -44 -47 0
147 44 0
147 48 0
-147 -44 -48 0
148 45 0
148 46 0
-148 -45 -46 0
149 45 0
149 47 0
-149 -45 -47 0
150 45 0
150 48 0
-150 -45 -48 0
151 46 0
151 47 0
-151 -46 -47 0
152 46 0
152 48 0
-152 -46 -48 0
153 47 0
153 48 0
-153 -47 -48 0
154 49 0
154 50 0
-154 -49 -50 0
155 49 0
155 51 0
-155 -49 -51 0
156 49 0
156 52 0
-156 -49 -52 0
157 49 0
157 53 0
-157 -49 -53 0
158 49 0
158 54 0
-158 -49 -54 0
159 49 0
159 55 0
-159 -49 -55 0
160 49 0
160 56 0
-160 -49 -56 0
161 50 0
161 51 0
-161 -50 -51 0
162 50 0
162 52 0
-162 -50 -52 0
163 50 0
163 53 0
-163 -50 -53 0
164 50 0
164 54 0
-164 -50 -54 0
165 50 0
165 55 0
-165 -50 -55 0
166 50 0
166 56 0
-166 -50 -56 0
167 51 0
167 52 0
-167 -51 -52 0
168 51 0
168 53 0
-168 -51 -53 0
169 51 0
169 54 0
-169 -51 -54 0
170 51 0
170 55 0
-170 -51 -55 0
171 51 0
171 56 0
-171 -51 -56 0
172 52 0
172 53 0
-172 -52 -53 0
173 52 0
173 54 0
-173 -52 -54 0
174 52 0
174 55 0
-174 -52 -55 0
175 52 0
175 56 0
-175 -52 -56 0
176 53 0
176 54 0
-176 -53 -54 0
177 53 0
177 55 0
-177 -53 -55 0
178 53 0
178 56 0
-178 -53 -56 0
179 54 0
179 55 0
-179 -54 -55 0
180 54 0
180 56 0
-180 -54 -56 0
181 55 0
181 56 0
-181 -55 -56 0
182 57 0
182 58 0
-182 -57 -58 0
183 57 0
183 59 0
-183 -57 -59 0
184 57 0
184 60 0
-184 -57 -60 0
185 57 0
185 61 0
-185 -57 -61 0
186 57 0
186 62 0
-186 -57 -62 0
187 57 0
187 63 0
-187 -57 -63 0
188 57 0
188 64 0
-188 -57 -64 0
189 58 0
189 59 0
-189 -58 -59 0
190 58 0
190 60 0
-190 -58 -60 0
191 58 0
191 61 0
-191 -58 -61 0
192 58 0
192 62 0
-192 -58 -62 0
193 58 0
193 63 0
-193 -58 -63 0
194 58 0
194 64 0
-194 -58 -64 0
195 59 0
195 60 0
-195 -59 -60 0
196 59 0
196 61 0
-196 -59 -61 0
197 59 0
197 62 0
-197 -59 -62 0
198 59 0
198 63 0
-198 -59 -63 0
199 59 0
199 64 0
-199 -59 -64 0
200 60 0
200 61 0
-200 -60 -61 0
201 60 0
201 62 0
-201 -60 -62 0
202 60 0
202 63 0
-202 -60 -63 0
203 60 0
203 64 0
-203 -60 -64 0
204 61 0
204 62 0
-204 -61 -62 0
205 61 0
205 63 0
-205 -61 -63 0
206 61 0
206 64 0
-206 -61 -64 0
207 62 0
207 63 0
-207 -62 -63 0
208 62 0
208 64 0
-208 -62 -64 0
209 63 0
209 64 0
-209 -63 -64 0
210 65 0
210 66 0
-210 -65 -66 0
211 65 0
211 67 0
-211 -65 -67 0
212 65 0
212 68 0
-212 -65 -68 0
213 65 0
213 69 0
-213 -65 -69 0
214 65 0
214 70 0
-214 -65 -70 0
215 65 0
215 71 0
-215 -65 -71 0
216 65 0
216 72 0
-216 -65 -72 0
217 66 0
217 67 0
-217 -66 -67 0
218 66 0
218 68 0
-218 -66 -68 0
219 66 0
219 69 0
-219 -66 -69 0
220 66 0
220 70 0
-220 -66 -70 0
221 66 0
221 71 0
-221 -66 -71 0
222 66 0
222 72 0
-222 -66 -72 0
223 67 0
223 68 0
-223 -67 -68 0
224 67 0
224 69 0
-224 -67 -69 0
225 67 0
225 70 0
-225 -67 -70 0
226 67 0
226 71 0
-226 -67 -71 0
227 67 0
227 72 0
-227 -67 -72 0
228 68 0
228 69 0
-228 -68 -69 0
229 68 0
229 70 0
-229 -68 -70 0
230 68 0
230 71 0
-230 -68 -71 0
231 68 0
231 72 0
-231 -68 -72 0
232 69 0
232 70 0
-232 -69 -70 0
233 69 0
233 71 0
-233 -69 -71 0
234 69 0
234 72 0
-234 -69 -72 0
235 70 0
235 71 0
-235 -70 -71 0
236 70 0
236 72 0
-236 -70 -72 0
237 71 0
237 72 0
-237 -71 -72 0
238 73 0
238 74 0
-238 -73 -74 0
239 73 0
239 75 0
-239 -73 -75 0
240 73 0
240 76 0
-240 -73 -76 0
241 73 0
241 77 0
-241 -73 -77 0
242 73 0
242 78 0
-242 -73 -78 0
243 73 0
243 79 0
-243 -73 -79 0
244 73 0
244 80 0
-244 -73 -80 0
245 74 0
245 75 0
-245 -74 -75 0
246 74 0
246 76 0
-246 -74 -76 0
247 74 0
247 77 0
-247 -74 -77 0
248 74 0
248 78 0
-248 -74 -78 0
249 74 0
249 79 0
-249 -74 -79 0
250 74 0
250 80 0
-250 -74 -80 0
251 75 0
251 76 0
-251 -75 -76 0
252 75 0
252 77 0
-252 -75 -77 0
253 75 0
253 78 0
-253 -75 -78 0
254 75 0
254 79 0
-254 -75 -79 0
255 75 0
255 80 0
-255 -75 -80 0
256 76 0
256 77 0
-256 -76 -77 0
257 76 0
257 78 0
-257 -76 -78 0
258 76 0
258 79 0
-258 -76 -79 0
259 76 0
259 80 0
-259 -76 -80 0
260 77 0
260 78 0
-260 -77 -78 0
261 77 0
261 79 0
-261 -77 -79 0
262 77 0
262 80 0
-262 -77 -80 0
263 78 0
263 79 0
-263 -78 -79 0
264 78 0
264 80 0
-264 -78 -80 0
265 79 0
265 80 0
-265 -79 -80 0
266 81 0
266 82 0
-266 -81 -82 0
267 81 0
267 83 0
-267 -81 -83 0
268 81 0
268 84 0
-268 -81 -84 0
269 81 0
269 85 0
-269 -81 -85 0
270 81 0
270 86 0
-270 -81 -86 0
271 81 0
271 87 0
-271 -81 -87 0
272 81 0
272 88 0
-272 -81 -88 0
273 82 0
273 83 0
-273 -82 -83 0
274 82 0
274 84 0
-274 -82 -84 0
275 82 0
275 85 0
-275 -82 -85 0
276 82 0
276 86 0
-276 -82 -86 0
277 82 0
277 87 0
-277 -82 -87 0
278 82 0
278 88 0
-278 -82 -88 0
279 83 0
279 84 0
-279 -83 -84 0
280 83 0
280 85 0
-280 -83 -85 0
281 83 0
281 86 0
-281 -83 -86 0
282 83 0
282 87 0
-282 -83 -87 0
283 83 0
283 88 0
-283 -83 -88 0
284 84 0
284 85 0
-284 -84 -85 0
285 84 0
285 86 0
-285 -84 -86 0
286 84 0
286 87 0
-286 -84 -87 0
287 84 0
287 88 0
-287 -84 -88 0
288 85 0
288 86 0
-288 -85 -86 0
289 85 0
289 87 0
-289 -85 -87 0
290 85 0
290 88 0
-290 -85 -88 0
291 86 0
291 87 0
-291 -86 -87 0
292 86 0
292 88 0
-292 -86 -88 0
293 87 0
293 88 0
-293 -87 -88 0
294 89 0
294 90 0
-294 -89 -90 0
295 89 0
295 91 0
-295 -89 -91 0
296 89 0
296 92 0
-296 -89 -92 0
297 89 0
297 93 0
-297 -89 -93 0
298 89 0
298 94 0
-298 -89 -94 0
299 89 0
299 95 0
-299 -89 -95 0
300 89 0
300 96 0
-300 -89 -96 0
301 90 0
301 91 0
-301 -90 -91 0
302 90 0
302 92 0
-302 -90 -92 0
303 90 0
303 93 0
-303 -90 -93 0
304 90 0
304 94 0
-304 -90 -94 0
305 90 0
305 95 0
-305 -90 -95 0
306 90 0
306 96 0
-306 -90 -96 0
307 91 0
307 92 0
-307 -91 -92 0
308 91 0
308 93 0
-308 -91 -93 0
309 91 0
309 94 0
-309 -91 -94 0
310 91 0
310 95 0
-310 -91 -95 0
311 91 0
311 96 0
-311 -91 -96 0
312 92 0
312 93 0
-312 -92 -93 0
313 92 0
313 94 0
-313 -92 -94 0
314 92 0
314 95 0
-314 -92 -95 0
315 92 0
315 96 0
-315 -92 -96 0
316 93 0
316 94 0
-316 -93 -94 0
317 93 0
317 95 0
-317 -93 -95 0
318 93 0
318 96 0
-318 -93 -96 0
319 94 0
319 95 0
-319 -94 -95 0
320 94 0
320 96 0
-320 -94 -96 0
321 95 0
321 96 0
-321 -95 -96 0
-322 118 0
-322 119 0
-322 120 0
-322 121 0
-322 122 0
-322 123 0
-322 124 0
-322 125 0
-322 126 0
-322 127 0
-322 128 0
-322 129 0
-322 130 0
-322 131 0
-322 132 0
-322 133 0
-322 134 0
-322 135 0
-322 136 0
-322 137 0
-322 138 0
-322 139 0
-322 140 0
-322 141 0
-322 142 0
-322 143 0
-322 144 0
-322 145 0
-322 146 0
-322 147 0
-322 148 0
-322 149 0
-322 150 0
-322 151 0
-322 152 0
-322 153 0
-322 154 0
-322 155 0
-322 156 0
-322 157 0
-322 158 0
-322 159 0
-322 160 0
-322 161 0
-322 162 0
-322 163 0
-322 164 0
-322 165 0
-322 166 0
-322 167 0
-322 168 0
-322 169 0
-322 170 0
-322 171 0
-322 172 0
-322 173 0
-322 174 0
-322 175 0
-322 176 0
-322 177 0
-322 178 0
-322 179 0
-322 180 0
-322 181 0
-322 182 0
-322 183 0
-322 184 0
-322 185 0
-322 186 0
-322 187 0
-322 188 0
-322 189 0
-322 190 0
-322 191 0
-322 192 0
-322 193 0
-322 194 0
-322 195 0
-322 196 0
-322 197 0
-322 198 0
-322 199 0
-322 200 0
-322 201 0
-322 202 0
-322 203 0
-322 204 0
-322 205 0
-322 206 0
-322 207 0
-322 208 0
-322 209 0
-322 210 0
-322 211 0
-322 212 0
-322 213 0
-322 214 0
-322 215 0
-322 216 0
-322 217 0
-322 218 0
-322 219 0
-322 220 0
-322 221 0
-322 222 0
-322 223 0
-322 224 0
-322 225 0
-322 226 0
-322 227 0
-322 228 0
-322 229 0
-322 230 0
-322 231 0
-322 232 0
-322 233 0
-322 234 0
-322 235 0
-322 236 0
-322 237 0
-322 238 0
-322 239 0
-322 240 0
-322 241 0
-322 242 0
-322 243 0
-322 244 0
-322 245 0
-322 246 0
-322 247 0
-322 248 0
-322 249 0
-322 250 0
-322 251 0
-322 252 0
-322 253 0
-322 254 0
-322 255 0
-322 256 0
-322 257 0
-322 258 0
-322 259 0
-322 260 0
-322 261 0
-322 262 0
-322 263 0
-322 264 0
-322 265 0
-322 266 0
-322 267 0
-322 268 0
-322 269 0
-322 270 0
-322 271 0
-322 272 0
-322 273 0
-322 274 0
-322 275 0
-322 276 0
-322 277 0
-322 278 0
-322 279 0
-322 280 0
-322 281 0
-322 282 0
-322 283 0
-322 284 0
-322 285 0
-322 286 0
-322 287 0
-322 288 0
-322 289 0
-322 290 0
-322 291 0
-322 292 0
-322 293 0
-322 294 0
-322 295 0
-322 296 0
-322 297 0
-322 298 0
-322 299 0
-322 300 0
-322 301 0
-322 302 0
-322 303 0
-322 304 0
-322 305 0
-322 306 0
-322 307 0
-322 308 0
-322 309 0
-322 310 0
-322 311 0
-322 312 0
-322 313 0
-322 314 0
-322 315 0
-322 316 0
-322 317 0
-322 318 0
-322 319 0
-322 320 0
-322 321 0
322 -118 -119 -120 -121 -122 -123 -124 -125 -126 -127 -128 -129 -130 -131 -132 -133 -134 -135 -136 -137 -138 -139 -140 -141 -142 -143 -144 -145 -146 -147 -148 -149 -150 -151 -152 -153 -154 -155 -156 -157 -158 -159 -160 -161 -162 -163 -164 -165 -166 -167 -168 -169 -170 -171 -172 -173 -174 -175 -176 -177 -178 -179 -180 -181 -182 -183 -184 -185 -186 -187 -188 -189 -190 -191 -192 -193 -194 -195 -196 -197 -198 -199 -200 -201 -202 -203 -204 -205 -206 -207 -208 -209 -210 -211 -212 -213 -214 -215 -216 -217 -218 -219 -220 -221 -222 -223 -224 -225 -226 -227 -228 -229 -230 -231 -232 -233 -234 -235 -236 -237 -238 -239 -240 -241 -242 -243 -244 -245 -246 -247 -248 -249 -250 -251 -252 -253 -254 -255 -256 -257 -258 -259 -260 -261 -262 -263 -264 -265 -266 -267 -268 -269 -270 -271 -272 -273 -274 -275 -276 -277 -278 -279 -280 -281 -282 -283 -284 -285 -286 -287 -288 -289 -290 -291 -292 -293 -294 -295 -296 -297 -298 -299 -300 -301 -302 -303 -304 -305 -306 -307 -308 -309 -310 -311 -312 -313 -314 -315 -316 -317 -318 -319 -320 -321 0
-322 0
